SPARKNaCl/why3-z3/sparknacl-stream.adb_289_7_precondition3_1.smt2
;; produced by z3_gnatprove.drv ;;
(set-info :smt-lib-version 2.5)
(set-info :source |VC generated by SPARK 2014|)
(set-info :category industrial)
(set-info :status unknown)
;;; generated by SMT-LIB2 driver
;;; SMT-LIB2 driver: bit-vectors, common part
;;; SMT-LIB2: integer arithmetic
(declare-sort tinteger_32B 0)

;; "tinteger_32B'int"
(declare-fun tinteger_32Bqtint (tinteger_32B) Int)

;; "tinteger_32B'axiom"
(assert
  (forall ((i tinteger_32B))
    (and
      (<= (- 2147483648) (tinteger_32Bqtint i))
      (<= (tinteger_32Bqtint i) 2147483647))))

;; "in_range"
(define-fun in_range ((x Int)) Bool
  (and (<= (- 2147483648) x) (<= x 2147483647)))

;; "to_rep"
(define-fun to_rep ((x tinteger_32B)) Int
  (tinteger_32Bqtint x))

;; "of_rep"
(declare-fun of_rep (Int) tinteger_32B)

;; "inversion_axiom"
(assert
  (forall ((x tinteger_32B))
    (! (= (of_rep (to_rep x)) x) :pattern ((to_rep x)) )))

;; "range_axiom"
(assert
  (forall ((x tinteger_32B))
    (! (in_range (to_rep x)) :pattern ((to_rep x)) )))

;; "coerce_axiom"
(assert
  (forall ((x Int))
    (! (=> (in_range x) (= (to_rep (of_rep x)) x)) :pattern ((to_rep
                                                               (of_rep x))) )))

;; "in_range"
(define-fun in_range1 ((x Int)) Bool
  (and (<= 0 x) (<= x 2147483647)))

(declare-sort byte 0)

;; "to_rep"
(declare-fun to_rep1 (byte) (_ BitVec 8))

;; "of_rep"
(declare-fun of_rep1 ((_ BitVec 8)) byte)

;; "inversion_axiom"
(assert
  (forall ((x byte)) (! (= (of_rep1 (to_rep1 x)) x) :pattern ((to_rep1 x)) )))

;; "range_axiom"
(assert true)

;; "coerce_axiom"
(assert
  (forall ((x (_ BitVec 8)))
    (! (= (to_rep1 (of_rep1 x)) x) :pattern ((to_rep1 (of_rep1 x))) )))

(declare-sort map1 0)

(declare-datatypes ()
  ((map__ref (map__refqtmk (map__content map1)))))

;; "has_bounds"
(declare-fun has_bounds (map1
  Int
  Int) Bool)

(declare-datatypes ()
  ((t (tqtmk (rec__first tinteger_32B)(rec__last tinteger_32B)))))

;; "mk"
(declare-fun mk (Int
  Int) t)

;; "mk_def"
(assert
  (forall ((f Int) (l Int))
    (! (=>
         (in_range f)
         (=>
           (in_range l)
           (and
             (= (to_rep (rec__first (mk f l))) f)
             (= (to_rep (rec__last (mk f l))) l)))) :pattern ((mk f l)) )))

;; "dynamic_property"
(define-fun dynamic_property ((range_first Int) (range_last Int) (low Int) (high Int)) Bool
  (and
    (in_range low)
    (and
      (in_range high)
      (=> (<= low high) (and (in_range1 low) (in_range1 high))))))

(declare-datatypes ()
  ((us_t (us_tqtmk (elts map1)(rt t)))))

;; "of_array"
(define-fun of_array ((a map1) (f Int) (l Int)) us_t
  (us_tqtmk a (mk f l)))

;; "first"
(define-fun first ((a us_t)) Int
  (to_rep (rec__first (rt a))))

;; "last"
(define-fun last ((a us_t)) Int
  (to_rep (rec__last (rt a))))

;; "well_formed"
(define-fun well_formed ((a us_t)) Bool
  (has_bounds
    (elts a)
    (to_rep (rec__first (rt a)))
    (to_rep (rec__last (rt a)))))

(declare-const c__first tinteger_32B)

(declare-const c__last tinteger_32B)

(declare-const m us_t)

(declare-const n map1)

;; "dynamic_invariant"
(define-fun dynamic_invariant ((temp___expr_256 us_t) (temp___is_init_252 Bool) (temp___skip_constant_253 Bool) (temp___do_toplevel_254 Bool) (temp___do_typ_inv_255 Bool)) Bool
  (and
    (=>
      (not (= temp___skip_constant_253 true))
      (dynamic_property
        0
        2147483647
        (first temp___expr_256)
        (last temp___expr_256)))
    (well_formed temp___expr_256)))

(declare-const c map1)

;; "c'unused"
(define-fun cqtunused () map__ref
  (map__refqtmk c))

;; "Assume"
(assert
  (and
    (dynamic_property 0 2147483647 (to_rep c__first) (to_rep c__last))
    (well_formed (of_array c (to_rep c__first) (to_rep c__last)))))

;; "Assume"
(assert (dynamic_invariant m true false true true))

;; "Assume"
(assert (has_bounds n 0 11))

;; "Assume"
(assert true)

;; "Assume"
(assert true)

;; "Assume"
(assert
  (and
    (and
      (and (= (first m) 0) (= (to_rep c__first) 0))
      (= (to_rep c__last) (last m)))
    (< (to_rep c__last) 2147483647)))

(declare-const o Int)

;; "Ensures"
(assert (= (to_rep c__last) o))

;; "to_rep'result'unused"
(define-fun to_repqtresultqtunused () Int
  o)

(declare-const o1 Int)

;; "Ensures"
(assert (= (to_rep c__first) o1))

;; "to_rep'result'unused"
(define-fun to_repqtresultqtunused1 () Int
  o1)

;; "map__content'result'unused"
(define-fun map__contentqtresultqtunused () map1
  c)

;; "temp___1410"
(define-fun temp___1410 () us_t
  (of_array c o1 o))

;; "of_array'result'unused"
(define-fun of_arrayqtresultqtunused () us_t
  temp___1410)

;; "temp___1411"
(define-fun temp___1411 () map1
  c)

;; "to_array'result'unused"
(define-fun to_arrayqtresultqtunused () map1
  temp___1411)

;; "o"
(define-fun o2 () Int
  o)

;; "last'result'unused"
(define-fun lastqtresultqtunused () Int
  o2)

;; "o"
(define-fun o3 () Int
  o1)

;; "first'result'unused"
(define-fun firstqtresultqtunused () Int
  o3)

;; "temp___compl_1412"
(define-fun temp___compl_1412 () us_t
  (of_array temp___1411 o3 o2))

;; "of_array'result'unused"
(define-fun of_arrayqtresultqtunused1 () us_t
  temp___compl_1412)

;; "o"
(define-fun o4 () map1
  temp___1411)

;; "to_array'result'unused"
(define-fun to_arrayqtresultqtunused1 () map1
  o4)

;; "param__c'unused"
(define-fun param__cqtunused () map__ref
  (map__refqtmk o4))

;; "map__ref'mk'result'unused"
(define-fun map__refqtmkqtresultqtunused () map__ref
  (map__refqtmk o4))

;; "o"
(define-fun o5 () us_t
  m)

;; "o"
(define-fun o6 () Int
  o2)

;; "last'result'unused"
(define-fun lastqtresultqtunused1 () Int
  o6)

(declare-const o7 tinteger_32B)

;; "Ensures"
(assert (= (to_rep o7) o6))

;; "of_rep'result'unused"
(define-fun of_repqtresultqtunused () tinteger_32B
  o7)

;; "o"
(define-fun o8 () Int
  o3)

;; "first'result'unused"
(define-fun firstqtresultqtunused1 () Int
  o8)

(declare-const o9 tinteger_32B)

;; "Ensures"
(assert (= (to_rep o9) o8))

;; "of_rep'result'unused"
(define-fun of_repqtresultqtunused1 () tinteger_32B
  o9)

;; Goal "def'vc"
;; File "sparknacl-stream.ads", line 81, characters 0-0
(assert
  (not (< (to_rep o7) 2147483647)))

(check-sat)
